DATASET = "thpack7";
INSTANCE = "037";

WIDTH = 233;
HEIGHT = 220;
LENGTH = 587;

NO_OF_SHAPES = 20;
size = [|
  98,73,44 |
  60,60,38 |
  105,73,60 |
  90,77,52 |
  66,58,24 |
  106,76,55 |
  55,44,36 |
  82,58,23 |
  74,61,58 |
  81,39,24 |
  71,65,39 |
  105,97,47 |
  114,97,69 |
  103,78,55 |
  93,66,55 |
  78,75,74 |
  118,67,58 |
  91,61,22 |
  96,58,24 |
  80,76,44 |
|];

verticality = [|
  0,1,1 |
  1,1,1 |
  1,1,1 |
  1,1,1 |
  0,0,1 |
  1,1,1 |
  1,1,1 |
  0,0,1 |
  1,1,1 |
  0,1,1 |
  1,1,1 |
  0,0,1 |
  1,1,1 |
  1,1,1 |
  1,1,1 |
  1,1,1 |
  0,1,1 |
  0,0,1 |
  0,0,1 |
  1,1,1 |
|];

box_count = [
  4,
  5,
  5,
  7,
  4,
  4,
  4,
  8,
  10,
  4,
  5,
  5,
  5,
  6,
  6,
  3,
  4,
  2,
  4,
  4,
];
